p cnf 20 40
1 -2 3 0
-1 4 5 0
2 -3 6 0
-2 -4 7 0
5 -6 8 0
-5 9 -10 0
3 -7 11 0
-3 8 12 0
6 -9 13 0
-6 10 -14 0
7 -11 15 0
-8 12 16 0
9 -13 17 0
-10 14 18 0
11 -15 19 0
-12 16 20 0
13 -17 1 0
-14 18 -2 0
15 -19 3 0
-16 20 4 0
1 -5 9 0
-2 6 -10 0
3 -7 11 0
-4 8 12 0
5 -9 13 0
-6 10 -14 0
7 -11 15 0
-8 12 16 0
9 -13 17 0
-10 14 -18 0
11 -15 19 0
-12 16 -20 0
1 2 -3 0
4 -5 6 0
-7 8 9 0
10 -11 12 0
-13 14 15 0
16 -17 18 0
-19 20 1 0
2 -3 -4 0